int: n; % Número de días
int: m; % Número de clientes
array[1..n, 1..m] of int: demand; % Demanda diaria por cliente y día
array[1..3] of int: costs; % Costos de producción (N, H, T)
array[1..3] of int: capacities; % Capacidad diaria (N, H, T)
array[1..m] of int: Ps; % Pago individual por cliente por MW
float: min_demand_percentage = 0.50; % Porcentaje mínimo de demanda a cubrir
float: hydro_max_percentage = 0.80; % Porcentaje máximo de capacidad para hidroeléctrica
int: hydro_max_consecutive_days = 1; % Días consecutivos máximos a ese porcentaje
